(set-logic QF_BV)
(declare-fun _substvar_953_ () (_ BitVec 16))
(declare-fun _substvar_901_ () (_ BitVec 16))
(declare-fun _substvar_884_ () (_ BitVec 16))
(declare-fun _substvar_744_ () (_ BitVec 16))
(declare-fun _substvar_746_ () (_ BitVec 16))
(declare-fun _substvar_4473_ () Bool)
(declare-fun _substvar_747_ () (_ BitVec 16))
(declare-fun _substvar_856_ () (_ BitVec 16))
(declare-fun _substvar_5863_ () (_ BitVec 49))
(declare-fun _substvar_743_ () (_ BitVec 16))
(declare-fun _substvar_937_ () (_ BitVec 16))
(declare-fun _substvar_852_ () (_ BitVec 16))
(declare-fun _substvar_855_ () (_ BitVec 16))
(declare-fun _substvar_794_ () (_ BitVec 129))
(declare-fun _substvar_745_ () (_ BitVec 16))
(declare-fun _substvar_912_ () (_ BitVec 16))
(declare-fun _substvar_870_ () (_ BitVec 16))
(declare-fun _substvar_772_ () (_ BitVec 129))
(declare-fun _substvar_892_ () (_ BitVec 16))
(declare-fun _substvar_642_ () (_ BitVec 16))
(declare-fun _substvar_1974_ () Bool)
(declare-fun _substvar_641_ () (_ BitVec 16))
(declare-fun _substvar_951_ () (_ BitVec 16))
(declare-fun _substvar_2168_ () Bool)
(declare-fun _substvar_1995_ () Bool)
(declare-fun _substvar_873_ () (_ BitVec 16))
(declare-fun _substvar_771_ () (_ BitVec 16))
(declare-fun _substvar_960_ () (_ BitVec 16))
(declare-fun _substvar_927_ () (_ BitVec 16))
(declare-fun _substvar_748_ () (_ BitVec 16))
(declare-fun _substvar_1997_ () Bool)
(declare-fun _substvar_940_ () (_ BitVec 16))
(declare-fun _substvar_1999_ () Bool)
(declare-fun _substvar_851_ () (_ BitVec 16))
(declare-fun _substvar_768_ () (_ BitVec 1))
(declare-fun _substvar_3521_ () Bool)
(declare-fun _substvar_903_ () (_ BitVec 1))
(declare-fun _substvar_930_ () (_ BitVec 1))
(declare-fun _substvar_1996_ () Bool)
(declare-fun _substvar_2240_ () Bool)
(declare-fun _substvar_2310_ () Bool)
(declare-fun _substvar_3520_ () Bool)
(declare-fun _substvar_893_ () (_ BitVec 1))
(declare-fun _substvar_966_ () (_ BitVec 16))
(declare-fun _substvar_3515_ () Bool)
(declare-fun _substvar_932_ () (_ BitVec 16))
(declare-fun _substvar_793_ () (_ BitVec 16))
(declare-fun _substvar_2189_ () Bool)
(declare-fun _substvar_4917_ () (_ BitVec 16))
(declare-fun _substvar_967_ () (_ BitVec 16))
(declare-fun _substvar_896_ () (_ BitVec 1))
(declare-fun _substvar_1998_ () Bool)
(declare-fun _substvar_644_ () (_ BitVec 1))
(declare-fun _substvar_643_ () (_ BitVec 1))
(declare-fun _substvar_909_ () (_ BitVec 1))
(declare-fun _substvar_788_ () (_ BitVec 16))
(declare-fun _substvar_947_ () (_ BitVec 16))
(declare-fun _substvar_2337_ () Bool)
(declare-fun _substvar_971_ () (_ BitVec 16))
(declare-fun _substvar_7795_ () (_ BitVec 16))
(assert (let ((?v_16 (= _substvar_953_ _substvar_951_)) (?v_0 (= _substvar_966_ _substvar_748_)) (?v_1 (= _substvar_771_ _substvar_747_)) (?v_2 (= _substvar_793_ _substvar_746_)) (?v_5 (= (_ bv0 16) _substvar_744_)) (?v_6 (= (_ bv0 16) _substvar_743_)) (?v_8 (= _substvar_768_ (_ bv0 1))) (?v_22 (= _substvar_896_ (_ bv0 1))) (?v_23 (= _substvar_893_ (_ bv0 1))) (?v_24 ((_ extract 127 112) _substvar_772_)) (?v_26 ((_ extract 95 80) _substvar_772_)) (?v_28 ((_ extract 63 48) _substvar_772_)) (?v_31 ((_ extract 15 0) _substvar_772_)) (?v_48 (= _substvar_855_ _substvar_951_)) (?v_32 (= _substvar_873_ _substvar_748_)) (?v_33 (= _substvar_7795_ _substvar_747_)) (?v_34 (= _substvar_4917_ _substvar_746_)) (?v_35 (= _substvar_932_ _substvar_745_)) (?v_36 (= _substvar_940_ (_ bv0 16))) (?v_37 (= _substvar_856_ _substvar_744_)) (?v_40 (= _substvar_903_ (_ bv0 1))) (?v_51 (= _substvar_644_ (_ bv0 1))) (?v_53 (= _substvar_909_ (_ bv0 1))) (?v_54 ((_ extract 111 96) _substvar_794_)) (?v_77 (= _substvar_960_ _substvar_951_)) (?v_80 (= _substvar_643_ (_ bv0 1)))) (and ?v_16 (ite _substvar_3515_ (and ?v_8 ?v_0 ?v_1 ?v_2 true true ?v_5 ?v_6) false) ?v_16 true (ite ?v_22 (= _substvar_772_ (_ bv0 129)) (= _substvar_772_ (concat (concat (_ bv0 97) _substvar_966_) _substvar_953_))) (ite ?v_22 (and ?v_23 (= _substvar_852_ ?v_24) (= _substvar_870_ (_ bv0 16)) (= _substvar_884_ ?v_26) (= _substvar_901_ (_ bv0 16)) (= _substvar_927_ ?v_28) true (= _substvar_851_ (_ bv0 16)) (= _substvar_967_ ?v_31)) (and ?v_23 (= _substvar_967_ ?v_24) (= _substvar_851_ (_ bv0 16)) (= (_ bv0 16) ?v_26) (= _substvar_927_ (_ bv0 16)) (= _substvar_901_ ?v_28) (= _substvar_884_ (_ bv0 16)) (= _substvar_870_ (_ bv0 16)) (= _substvar_852_ ?v_31))) (ite (= _substvar_893_ (_ bv1 1)) (= _substvar_788_ (bvadd (_ bv0 16) _substvar_967_)) (= _substvar_788_ (bvor (bvor (bvor (bvor (bvor (bvor (bvor _substvar_852_ _substvar_870_) _substvar_884_) _substvar_901_) _substvar_927_) (_ bv0 16)) _substvar_851_) _substvar_967_))) ?v_48 (ite _substvar_3515_ (and ?v_40 ?v_32 ?v_33 ?v_34 ?v_35 ?v_36 ?v_37 true) false) ?v_48 true (ite ?v_51 (= _substvar_794_ (concat (concat (concat (concat (concat (concat (concat (concat _substvar_855_ _substvar_903_) _substvar_873_) _substvar_7795_) _substvar_4917_) _substvar_932_) _substvar_940_) _substvar_856_) (_ bv0 16))) (= _substvar_794_ (concat (concat (concat (concat (concat _substvar_5863_ _substvar_932_) _substvar_4917_) _substvar_7795_) _substvar_873_) _substvar_855_))) (ite ?v_51 (and true ?v_53 true _substvar_2310_ _substvar_1999_ _substvar_1998_ _substvar_1997_ _substvar_1996_ _substvar_1995_) (and true ?v_53 (= (_ bv0 16) ?v_54) true true true true true true)) (= _substvar_642_ (_ bv0 16)) ?v_77 (ite _substvar_3515_ (and true true _substvar_2168_ true _substvar_3521_ true _substvar_3520_ _substvar_2189_) false) ?v_77 (ite _substvar_3515_ _substvar_1974_ _substvar_2240_) (ite ?v_80 true (= (_ bv0 129) (concat (concat (concat (concat (concat (concat (concat (_ bv0 32) _substvar_930_) _substvar_947_) _substvar_937_) _substvar_912_) _substvar_892_) _substvar_971_) _substvar_960_))) _substvar_4473_ (= _substvar_641_ (_ bv0 16)) (or (and (= _substvar_896_ _substvar_644_) (not (= _substvar_788_ _substvar_642_))) (and (= _substvar_896_ _substvar_643_) (not (= _substvar_788_ _substvar_641_))) (and _substvar_2337_ (not (= _substvar_642_ _substvar_641_)))))))
(check-sat)
(exit)
